SCIP Status        : solving was interrupted [time limit reached]
Total Time         :    3600.01
  solving          :    3600.00
  presolving       :       0.46 (included in solving)
  reading          :       0.01
  copying          :       1.09 (68 #copies) (minimal 0.00, maximal 0.04, average 0.02)
Original Problem   :
  Problem name     : bbbenchmark/pw09_100.1.cut
  Variables        : 101 (100 binary, 0 integer, 0 implicit integer, 1 continuous)
  Constraints      : 1 initial, 1 maximal
  Objective        : minimize, 1 non-zeros (abs.min = 1, abs.max = 1)
Presolved Problem  :
  Problem name     : t_bbbenchmark/pw09_100.1.cut
  Variables        : 1290 (100 binary, 0 integer, 1140 implicit integer, 50 continuous)
  Constraints      : 1288 initial, 6012 maximal
  Objective        : minimize, 1 non-zeros (abs.min = 1, abs.max = 1)
  Nonzeros         : 11585 constraint, 202 clique table
Presolvers         :   ExecTime  SetupTime  Calls  FixedVars   AggrVars   ChgTypes  ChgBounds   AddHoles    DelCons    AddCons   ChgSides   ChgCoefs
  boundshift       :       0.00       0.00      0          0          0          0          0          0          0          0          0          0
  convertinttobin  :       0.00       0.00      0          0          0          0          0          0          0          0          0          0
  domcol           :       0.00       0.00      1          0          0          0          0          0          0          0          0          0
  dualagg          :       0.00       0.00      0          0          0          0          0          0          0          0          0          0
  dualcomp         :       0.00       0.00      1          0          0          0          0          0          0          0          0          0
  dualinfer        :       0.00       0.00      0          0          0          0          0          0          0          0          0          0
  dualsparsify     :       0.00       0.00      1          0          0          0          0          0          0          0          0          0
  gateextraction   :       0.00       0.00      0          0          0          0          0          0          0          0          0          0
  implics          :       0.00       0.00      2          0          0          0          0          0          0          0          0          0
  inttobinary      :       0.00       0.00      0          0          0          0          0          0          0          0          0          0
  qpkktref         :       0.00       0.00      0          0          0          0          0          0          0          0          0          0
  redvub           :       0.00       0.00      0          0          0          0          0          0          0          0          0          0
  sparsify         :       0.00       0.00      1          0          0          0          0          0          0          0          0          0
  stuffing         :       0.00       0.00      0          0          0          0          0          0          0          0          0          0
  trivial          :       0.00       0.00      4          0          0          0          0          0          0          0          0          0
  tworowbnd        :       0.00       0.00      0          0          0          0          0          0          0          0          0          0
  dualfix          :       0.00       0.00      4          0          0          0          0          0          0          0          0          0
  genvbounds       :       0.00       0.00      0          0          0          0          0          0          0          0          0          0
  probing          :       0.23       0.00      1          0          0          0          0          0          0          0          0          0
  pseudoobj        :       0.00       0.00      1          0          0          0          1          0          0          0          0          0
  symmetry         :       0.00       0.00      0          0          0          0          0          0          0          0          0          0
  vbounds          :       0.00       0.00      1          0          0          0          0          0          0          0          0          0
  varbound         :       0.01       0.00      2          0          0          0          0          0          0          0          0          0
  and              :       0.00       0.00      2          0          0          0          0          0          0          0          0          0
  linear           :       0.00       0.00      2          0          0          0          0          0          0          0          0          0
  logicor          :       0.00       0.00      0          0          0          0          0          0          0          0          0          0
  bounddisjunction :       0.00       0.00      0          0          0          0          0          0          0          0          0          0
  nonlinear        :       0.20       0.01      5          0          0          0          1          0          0       1287          0          0
  benders          :       0.00       0.00      0          0          0          0          0          0          0          0          0          0
  components       :       0.00       0.00      1          0          0          0          0          0          0          0          0          0
  root node        :          -          -      -          0          -          -          7          -          -          -          -          -
Constraints        :     Number  MaxNumber  #Separate #Propagate    #EnfoLP    #EnfoRelax  #EnfoPS    #Check   #ResProp    Cutoffs    DomReds       Cuts    Applied      Conss   Children
  benderslp        :          0          0          0          0     393625          0          0      40319          0          0          0          0          0          0          0
  integral         :          0          0          0          0     393625          0          0      40319          0          0         10          0          0          0     787220
  varbound         :         49         49        119    1687906          0          0          0       6200          0          0     155522          0          0          0          0
  and              :       1140       1140     430266    1700303          7          0          0       6200     171754          0     491911       1010        848          0          0
  linear           :         99+       143        119    1700481          7          0          0       6198      34591        632    7046130          0          0          0          0
  logicor          :          0+      1676          0     118916          0          0          0          0          9        506          5          0          0          0          0
  bounddisjunction :          0+      3104          0     149936          0          0          0          0          2         89          2          0          0          0          0
  benders          :          0          0          0          0          7          0          0         18          0          0          0          0          0          0          0
  countsols        :          0          0          0          0          7          0          0         18          0          0          0          0          0          0          0
  components       :          0          0          0          0          0          0          0          0          0          0          0          0          0          0          0
Constraint Timings :  TotalTime  SetupTime   Separate  Propagate     EnfoLP     EnfoPS     EnfoRelax   Check    ResProp    SB-Prop
  benderslp        :       0.33       0.00       0.00       0.00       0.33       0.00       0.00       0.00       0.00       0.00
  integral         :      79.61       0.00       0.00       0.00      79.40       0.00       0.00       0.21       0.00       0.00
  varbound         :       3.04       0.00       0.00       2.95       0.00       0.00       0.00       0.09       0.00       0.00
  and              :     117.64       0.00      91.83      24.67       0.00       0.00       0.00       0.84       0.14       0.16
  linear           :      39.04       0.00       0.07      38.72       0.00       0.00       0.00       0.02       0.20       0.03
  logicor          :       4.08       0.00       0.00       4.08       0.00       0.00       0.00       0.00       0.00       0.00
  bounddisjunction :       9.83       0.00       0.00       9.82       0.00       0.00       0.00       0.00       0.00       0.01
  benders          :       0.00       0.00       0.00       0.00       0.00       0.00       0.00       0.00       0.00       0.00
  countsols        :       0.00       0.00       0.00       0.00       0.00       0.00       0.00       0.00       0.00       0.00
  components       :       0.55       0.00       0.00       0.55       0.00       0.00       0.00       0.00       0.00       0.00
Propagators        : #Propagate   #ResProp    Cutoffs    DomReds
  dualfix          :          2          0          0          0
  genvbounds       :          0          0          0          0
  nlobbt           :          0          0          0          0
  obbt             :          0          0          0          0
  probing          :          0          0          0          0
  pseudoobj        :    1601688          6          0       8922
  redcost          :     843924          0          0     162623
  rootredcost      :         15          0          0          0
  symmetry         :          0          0          0          0
  vbounds          :     246045          0          0          0
Propagator Timings :  TotalTime  SetupTime   Presolve  Propagate    ResProp    SB-Prop
  dualfix          :       0.00       0.00       0.00       0.00       0.00       0.00
  genvbounds       :       1.12       0.00       0.00       1.12       0.00       0.00
  nlobbt           :       0.00       0.00       0.00       0.00       0.00       0.00
  obbt             :       0.00       0.00       0.00       0.00       0.00       0.00
  probing          :       0.23       0.00       0.23       0.00       0.00       0.00
  pseudoobj        :       2.37       0.00       0.00       2.37       0.00       0.00
  redcost          :      26.72       0.00       0.00      26.72       0.00       0.00
  rootredcost      :       1.55       0.00       0.00       1.55       0.00       0.00
  symmetry         :       0.72       0.00       0.00       0.72       0.00       0.00
  vbounds          :       1.44       0.00       0.00       1.44       0.00       0.00
Conflict Analysis  :       Time      Calls    Success    DomReds  Conflicts   Literals    Reconvs ReconvLits   Dualrays   Nonzeros   LP Iters   (pool size: [10000,10000])
  propagation      :       0.01        596        285          -        353       76.3          0        0.0          -          -          -
  infeasible LP    :       0.82        651        651          -      23539      135.2          0        0.0        846      148.4          0
  bound exceed. LP :      18.48       5389       5209          -      56075       95.5          0        0.0          0        0.0      78041
  strong branching :       0.00          0          0          -          0        0.0          0        0.0          -          -          0
  pseudo solution  :       0.00          0          0          -          0        0.0          0        0.0          -          -          -
  applied globally :       0.25          -          -          0      17218       91.8          -          -        846          -          -
  applied locally  :          -          -          -          0          0        0.0          -          -          0          -          -
Separators         :   ExecTime  SetupTime      Calls  RootCalls    Cutoffs    DomReds  FoundCuts ViaPoolAdd  DirectAdd    Applied ViaPoolApp  DirectApp      Conss
  cut pool         :       6.41          -      62276        146          -          -      25781    1603938          -          -          -          -          -    (maximal pool size:       2126)
  aggregation      :     149.19       0.00       5265        119          0          0          3          4          0          4          4          0          0
  > cmir           :          -          -          -          -          -          -          -          4          0          4          4          0          -
  > flowcover      :          -          -          -          -          -          -          -          0          0          0          0          0          -
  > knapsackcover  :          -          -          -          -          -          -          -          0          0          0          0          0          -
  cgmip            :       0.00       0.00          0          0          0          0          0          0          0          0          0          0          0
  clique           :       0.01       0.00        119        119          0          0          0          0          0          0          0          0          0
  closecuts        :       0.00       0.00          0          0          0          0          0          0          0          0          0          0          0
  convexproj       :       0.00       0.00          0          0          0          0          0          0          0          0          0          0          0
  disjunctive      :       0.00       0.00          0          0          0          0          0          0          0          0          0          0          0
  eccuts           :       0.00       0.00          0          0          0          0          0          0          0          0          0          0          0
  gauge            :       0.00       0.00          0          0          0          0          0          0          0          0          0          0          0
  gomory           :       0.00       0.00          0          0          0          0          0          0          0          0          0          0          0
  > gomorymi       :          -          -          -          -          -          -          -          0          0          0          0          0          -
  > strongcg       :          -          -          -          -          -          -          -          0          0          0          0          0          -
  impliedbounds    :       0.32       0.00       5265        119          0          0          0          0          0          0          0          0          0
  interlattice     :       0.00       0.00          0          0          0          0          0          0          0          0          0          0          0
  interminor       :       0.00       0.00          0          0          0          0          0          0          0          0          0          0          0
  intersub         :       2.14       0.00         80         80          0          0         80          0         80         80          0         80          0
  intobj           :       0.00       0.00          0          0          0          0          0          0          0          0          0          0          0
  mcf              :       0.00       0.00          1          1          0          0          0          0          0          0          0          0          0
  minor            :       0.01       0.00          0          0          0          0          0          0          0          0          0          0          0
  mixing           :       0.05       0.00       5265        119          0          0          0          0          0          0          0          0          0
  oddcycle         :       0.00       0.00          0          0          0          0          0          0          0          0          0          0          0
  rapidlearning    :       0.04       0.00          0          0          0          0          0          0          0          0          0          0          0
  rlt              :       0.00       0.00         10         10          0          0          0          0          0          0          0          0          0
  zerohalf         :      15.36       0.00       4550         20          0          0      25778    1603934          0     266960     266960          0          0
Cutselectors       :   ExecTime  SetupTime      Calls  RootCalls   Selected     Forced   Filtered  RootSelec   RootForc   RootFilt 
  hybrid           :       1.08       0.00      29157        118     267892          0    1337136        225          0          5
Pricers            :   ExecTime  SetupTime      Calls       Vars
  problem variables:       0.00          -          0          0
Branching Rules    :   ExecTime  SetupTime   BranchLP  BranchExt   BranchPS    Cutoffs    DomReds       Cuts      Conss   Children
  allfullstrong    :       0.00       0.00          0          0          0          0          0          0          0          0
  cloud            :       0.00       0.00          0          0          0          0          0          0          0          0
  distribution     :       0.00       0.00          0          0          0          0          0          0          0          0
  fullstrong       :       0.00       0.00          0          0          0          0          0          0          0          0
  inference        :       0.00       0.00          0          0          0          0          0          0          0          0
  leastinf         :       0.00       0.00          0          0          0          0          0          0          0          0
  lookahead        :       0.00       0.00          0          0          0          0          0          0          0          0
  mostinf          :       0.00       0.00          0          0          0          0          0          0          0          0
  multaggr         :       0.00       0.00          0          0          0          0          0          0          0          0
  nodereopt        :       0.00       0.00          0          0          0          0          0          0          0          0
  pscost           :       0.00       0.00          0          0          0          0          0          0          0          0
  random           :       0.00       0.00          0          0          0          0          0          0          0          0
  relpscost        :      78.23       0.00     393618          0          0          0         10          0          0     787220
  vanillafullstrong:       0.00       0.00          0          0          0          0          0          0          0          0
Primal Heuristics  :   ExecTime  SetupTime      Calls      Found       Best
  LP solutions     :       0.03          -          -          7          7
  relax solutions  :       0.00          -          -          0          0
  pseudo solutions :       0.00          -          -          0          0
  strong branching :       0.00          -          -          0          0
  actconsdiving    :       0.00       0.00          0          0          0
  adaptivediving   :       3.67       0.00         30          0          0
  alns             :       1.59       0.00         20          0          0
  bound            :       0.00       0.00          0          0          0
  clique           :       0.01       0.00          1          0          0
  coefdiving       :       0.00       0.00          0          0          0
  completesol      :       0.00       0.00          0          0          0
  conflictdiving   :     148.51       0.00       1179          0          0
  crossover        :       3.29       0.00          8          0          0
  dins             :       0.00       0.00          0          0          0
  distributiondivin:      80.13       0.00        577          0          0
  dps              :       0.00       0.00          0          0          0
  dualval          :       0.00       0.00          0          0          0
  farkasdiving     :       0.03       0.00          0          0          0
  feaspump         :       0.31       0.00          1          0          0
  fixandinfer      :       0.00       0.00          0          0          0
  fracdiving       :      49.65       0.00        436          0          0
  gins             :       0.44       0.00          0          0          0
  guideddiving     :      49.25       0.00        436          2          2
  indicator        :       0.27       0.00          0          0          0
  indicatordiving  :       0.00       0.00          0          0          0
  intdiving        :       0.00       0.00          0          0          0
  intshifting      :       0.70       0.00        157          0          0
  linesearchdiving :      45.99       0.00        681          1          1
  localbranching   :       0.00       0.00          0          0          0
  locks            :       0.01       0.00          1          0          0
  lpface           :       0.42       0.00          0          0          0
  mpec             :      36.24       0.00         11          0          0
  multistart       :       0.00       0.00          0          0          0
  mutation         :       0.00       0.00          0          0          0
  nlpdiving        :       7.20       0.00          2          0          0
  objpscostdiving  :      31.65       0.00         92          2          1
  octane           :       0.00       0.00          0          0          0
  ofins            :       0.39       0.00          0          0          0
  oneopt           :       0.33       0.00         17          0          0
  padm             :       0.00       0.00          0          0          0
  proximity        :       0.00       0.00          0          0          0
  pscostdiving     :      52.93       0.00        325          3          3
  randrounding     :       3.11       0.00      40358          0          0
  rens             :       0.00       0.00          0          0          0
  reoptsols        :       0.00       0.00          0          0          0
  repair           :       0.00       0.00          0          0          0
  rins             :       2.42       0.00         39          0          0
  rootsoldiving    :      21.89       0.00        204          3          0
  rounding         :       2.09       0.00       9119          0          0
  shiftandpropagate:       0.00       0.00          0          0          0
  shifting         :      28.41       0.00      10617          1          1
  simplerounding   :       0.44       0.00          0          0          0
  subnlp           :     316.82       0.00          0          0          0
  trivial          :       0.02       0.00          2          2          2
  trivialnegation  :       0.00       0.00          0          0          0
  trustregion      :       0.00       0.00          0          0          0
  trysol           :       0.45       0.00          0          0          0
  twoopt           :       0.00       0.00          0          0          0
  undercover       :       2.92       0.00          1          1          1
  vbounds          :       0.00       0.00          0          0          0
  veclendiving     :      47.72       0.00        865          0          0
  zeroobj          :       0.00       0.00          0          0          0
  zirounding       :       0.58       0.00       1000          0          0
  other solutions  :          -          -          -          0          -
Diving (single)    :      Calls      Nodes   LP Iters Backtracks  Conflicts   MinDepth   MaxDepth   AvgDepth  RoundSols  NLeafSols  MinSolDpt  MaxSolDpt  AvgSolDpt
  actconsdiving    :          0          -          -          -          -          -          -          -          -          -          -          -          -
  coefdiving       :          0          -          -          -          -          -          -          -          -          -          -          -          -
  conflictdiving   :       1179      44841    1177568       1112      18000         70         90       77.8          0          -          -          -          -
  distributiondivin:        577      21831     398036        670       8807         59         92       75.4          0          -          -          -          -
  farkasdiving     :          0          -          -          -          -          -          -          -          -          -          -          -          -
  fracdiving       :        436      53258     399698        211       1867         65        480      159.4          0          -          -          -          -
  guideddiving     :        436      44974     416802         60       1008         66        387      137.1          0          2        112        125      118.5
  indicatordiving  :          0          -          -          -          -          -          -          -          -          -          -          -          -
  linesearchdiving :        681      35313     401888        270      15882         65        111       88.8          0          1         91         91       91.0
  pscostdiving     :        325      13836     438800        302       3889         67         90       78.1          0          3         79         90       86.0
  veclendiving     :        865      36994     394879        678      30739         65         98       78.1          0          -          -          -          -
Diving (adaptive)  :      Calls      Nodes   LP Iters Backtracks  Conflicts   MinDepth   MaxDepth   AvgDepth  RoundSols  NLeafSols  MinSolDpt  MaxSolDpt  AvgSolDpt
  actconsdiving    :          5        268       3456          6         70         70         79       74.0          0          -          -          -          -
  coefdiving       :          3        148        928          2         57         76         94       85.3          0          -          -          -          -
  conflictdiving   :          0          -          -          -          -          -          -          -          -          -          -          -          -
  distributiondivin:          0          -          -          -          -          -          -          -          -          -          -          -          -
  farkasdiving     :          0          -          -          -          -          -          -          -          -          -          -          -          -
  fracdiving       :          3        451       3121          2         18         77        347      185.0          0          -          -          -          -
  guideddiving     :          4        478       4403          0          7         71        298      141.0          0          -          -          -          -
  indicatordiving  :          0          -          -          -          -          -          -          -          -          -          -          -          -
  linesearchdiving :          9        626       7389          1        197         80        101       90.4          0          -          -          -          -
  pscostdiving     :          3        184       5378          5         68         76         88       81.3          0          -          -          -          -
  veclendiving     :          3        167       2240          4        177         69         80       74.0          0          -          -          -          -
Neighborhoods      :      Calls  SetupTime  SolveTime SolveNodes       Sols       Best       Exp3  EpsGreedy        UCB TgtFixRate  Opt  Inf Node Stal  Sol  Usr Othr Actv
  rens             :          4       0.09       0.11        130          0          0    0.00000   -1.00000    0.46441      0.822    0    2    0    2    0    0    0    1
  rins             :          4       0.15       0.13        171          0          0    0.00000   -1.00000    0.48013      0.778    0    2    0    2    0    0    0    1
  mutation         :          2       0.05       0.12         91          0          0    0.00000   -1.00000    0.46380      0.850    0    1    0    1    0    0    0    1
  localbranching   :          2       0.02       0.10         69          0          0    0.00000   -1.00000    0.46544      0.850    0    1    0    1    0    0    0    1
  crossover        :          2       0.04       0.17        145          0          0    0.00000   -1.00000    0.42685      0.850    0    1    0    1    0    0    0    1
  proximity        :          2       0.05       0.20        113          0          0    0.00000   -1.00000    0.45085      0.850    0    1    0    1    0    0    0    1
  zeroobjective    :          2       0.04       0.04         84          0          0    0.00000   -1.00000    0.46185      0.850    0    1    0    1    0    0    0    1
  dins             :          2       0.04       0.05         71          0          0    0.00000   -1.00000    0.46685      0.850    0    1    0    1    0    0    0    1
  trustregion      :          0       0.00       0.00          0          0          0    0.00000   -1.00000    1.00000      0.900    0    0    0    0    0    0    0    0
Expressions        :   #IntEval  IntEvalTi   #RevProp  RevPropTi    DomReds    Cutoffs  #Estimate  EstimTime  Branching  #Simplify SimplifyTi Simplified
  pow              :          0       0.00          0       0.00          0          0          0       0.00          0          0       0.00          0
  prod             :      17820       0.01          0       0.00          0          0          0       0.00          0      10050       0.00          0
  sum              :          8       0.00          2       0.00          0          0          0       0.00          0          3       0.02          2
  var              :       4679       0.01          0       0.00          0          0          0       0.00          0      21592       0.00          0
  varidx           :          0       0.00          0       0.00          0          0          0       0.00          0          0       0.00          0
LP                 :       Time      Calls Iterations  Iter/call   Iter/sec  Time-0-It Calls-0-It    ItLimit
  primal LP        :     123.48      18347          0       0.00       0.00     123.36      18347
  dual LP          :    1637.03     569093    7775056      14.36    4749.49      10.72      27536
  lex dual LP      :       0.00          0          0       0.00          -
  barrier LP       :       0.00          0          0       0.00          -       0.00          0
  resolve instable :       0.00          0          0       0.00          -
  diving/probing LP:     433.75      25029    3955312     158.03    9118.87
  strong branching :      16.99        710      92821     130.73    5463.27          -          -        446
    (at root node) :          -         20       7978     398.90          -
  conflict analysis:      10.85       8778      78041       8.89    7192.72
NLP relaxation     :
  solve time       :       7.06 (9 calls)
  convexity        :  nonconvex (148 linear rows, 0 convex ineq., 0 nonconvex ineq., 1140 nonlinear eq. or two-sided ineq.)
NLP Solvers        :  #Problems  ProblemTi    #Solves  SolveTime      #Iter  Time/Iter      #Okay #TimeLimit #IterLimit #LObjLimit #Interrupt  #NumError #EvalError  #OutOfMem #LicenseEr #OtherTerm   #GlobOpt    #LocOpt  #Feasible #LocInfeas #GlobInfea #Unbounded   #Unknown
  ipopt            :         12      12.96         36      43.23       1637       0.03         33          0          3          0          0          0          0          0          0          0          0         16          1         16          0          0          3
B&B Tree           :
  number of runs   :          1
  nodes            :     512406 (393610 internal, 118796 leaves)
  feasible leaves  :          7
  infeas. leaves   :          6
  objective leaves :     118782
  nodes (total)    :     512406 (393610 internal, 118796 leaves)
  nodes left       :     274731
  max depth        :         85
  max depth (total):         85
  backtracks       :      88766 (17.3%)
  early backtracks :          0 (0.0%)
  nodes exc. ref.  :          0 (0.0%)
  delayed cutoffs  :          1
  repropagations   :          8 (300 domain reductions, 0 cutoffs)
  avg switch length:       7.35
  switching time   :     219.36
Estim. Tree Size   :    1024980
Estimation Tree    : 787221 nodes (512490 visited, 393610 internal, 118880 leaves, 274731 open), weight: 0.0000 completed 0.0144
Estimations        :      estim      value      trend resolution     smooth
  wbe              :         in          -          -          -          -
  tree-profile     :         -1          -          -          -          -
  gap              :   15219817    0.60385    0.00001        128   15046854
  tree-weight      :    1024980    0.00000    0.00000        128    1023844
  leaf-frequency   :    1024980    0.23196   -0.00000        128    3043125
  ssg              :  130715783    0.97719   -0.00000        128  131686619
  open-nodes       :    1024980 274731.00000  180.94278        128    1023844
Root Node          :
  First LP value   : -5.44713804713805e+00
  First LP Iters   :       2193 (12900.00 Iter/sec)
  First LP Time    :       0.17
  Final Dual Bound : -5.28824713787952e+00
  Final Root Iters :       7731
  Root LP Estimate : -2.63480482111719e+00
Solution           :
  Solutions found  :         22 (18 improvements)
  First Solution   : +1.00000000000000e+05   (in run 1, after 0 nodes, 0.02 seconds, depth 0, found by <trivial>)
  Gap First Sol.   :   infinite
  Gap Last Sol.    :      74.81 %
  Primal Bound     : -2.94747474747475e+00   (in run 1, after 19549 nodes, 234.87 seconds, depth 125, found by <guideddiving>)
  Dual Bound       : -4.88117692177063e+00
  Gap              :      65.61 %
Integrals          :      Total       Avg%
  primal-dual      :  146818.14      40.78
  primal-ref       :          -          - (not evaluated)
  dual-ref         :          -          - (not evaluated)
